c 2022-05-16 17:50:32 by qbfdd.py,v 1.2.2
c qbfdd.py /tmp/1test.cnf /home/lagniez/Works/Softs/d4/scripts/testPreproc.sh -m ddmin -g b -qS
c 
c mode: ddmin
c rounds: 3
c test runs: 4842
c time elapsed: 233.83s
c total: clauses  : -223 (95.71%)
c        variables: -0 (0.00%)
c        literals : -1017 (97.98%)
c 
p cnf 40 10
8 -1 0
1 -10 0
29 30 0
27 -26 0
-27 -29 -8 0
29 10 0
25 -27 0
-25 -10 0
26 -10 0
-29 26 0
